(set-logic QF_S)
(declare-fun var_0xINPUT_94842 () String)
(assert (and (= (len var_0xINPUT_94842) 0) (= (len var_0xINPUT_94842) 0) (not (= var_0xINPUT_94842 "Example:")) (not (= var_0xINPUT_94842 "VEECEXk2pV"))))
(check-sat var_0xINPUT_94842)